1467
45 46 2 26 37 32 51 10 87 76 97 20 3 16 68 53 29 52 63 89 96 88 75 34 22 61 7 33 57 60 35 95 66 18 78 50 74 24 86 48 49 62 5 80 19 91 36 13 9 17 41 94 38 39 71 55 64 21 79 12 99 6 65 14 44 56 90 67 40 28 54 58 98 77 42 25 85 15 1 30 4 93 23 92 11 43 59 82 31 83 47 73 72 84 81 70 27 8 69 
